&BANDS
prefix='aucl2'
filband='aucl2.band'
lsym = .false. 
/