#************************************************************************************
#*                   Generated by cif2cell 2.0.0 2024-03-23 13:26                   *
#*  T. Bjorkman, Comp. Phys. Commun. 182, 1183-1186 (2011). Please cite generously. *
#*                                                                                  *
#*                              Data obtained from COD                              *
#*                                    None   (?)                                    *
#*             Failed to get author information, No journal information             *
#************************************************************************************

&CONTROL
calculation='vc-relax'
etot_conv_thr=1.0d-5
forc_conv_thr=1.0d-4
disk_io='low'
nstep=500
restart_mode='from_scratch'
tstress=.true.
tprnfor=.true.
wf_collect=.true.
prefix='ICl2'
pseudo_dir='/home/k0713/k071300/data/sg15_oncv_upf_2020-02-06'
/
&SYSTEM
ibrav = 0
A = 15.464994
nat = 110
ntyp = 5
ecutwfc=80.0
ecutrho=320.0
occupations='smearing'
smearing='gaussian'
degauss=0.02
/
&electrons
conv_thr=1.0d-8
mixing_beta=0.3
/
&ions
/
&cell
press = 0.0
/
CELL_PARAMETERS {alat}
1.063362017   0.008312237  -0.013409776
-0.549642857   1.006910700  -0.005396809
0.076199750   0.019832353   0.435402523
ATOMIC_SPECIES
H    1.00750   H_ONCV_PBE-1.2.upf
Cl   35.45150  Cl_ONCV_PBE-1.2.upf
C   12.01060   C_ONCV_PBE-1.2.upf
I  126.90400   I_ONCV_PBE-1.2.upf
S   32.06750   S_ONCV_PBE-1.2.upf
ATOMIC_POSITIONS {crystal}
I             0.0597838175        0.2575786553        0.8434933785
I             0.9402161825        0.7424213447        0.1565066215
Cl            0.0110566342        0.0995089487        0.9109961162
Cl           -0.0110566342        0.9004910513        0.0890038838
Cl            0.1092576538        0.4158599165        0.7714567737
Cl            0.8907423462        0.5841400835        0.2285432263
S             0.1297349070        0.6464612521        0.9279738948
S             0.8702650930        0.3535387479        0.0720261052
S             0.1654957282        0.6106857804        0.4123680171
S             0.8345042718        0.3893142196        0.5876319829
S             0.6909226343        0.5858254358        0.5311957246
S             0.3090773657        0.4141745642        0.4688042754
S             0.6602927936        0.6224745620        0.0449410347
S             0.3397072064        0.3775254380        0.9550589653
S             0.7612768042        0.8487742523        0.3918002352
S             0.2387231958        0.1512257477        0.6081997648
S             0.2139782973        0.8474312412        0.2914778462
S             0.7860217027        0.1525687588        0.7085221538
S             0.7322810676        0.8905893444        0.9040794186
S             0.2677189324        0.1094106556        0.0959205814
S             0.3963509521        0.8652396455        0.3565017544
S             0.6036490479        0.1347603545        0.6434982456
S             0.5846689711        0.8546270089        0.4009809071
S             0.4153310289        0.1453729911        0.5990190929
S             0.5606838918        0.8907297703        0.8254254429
S             0.4393161082        0.1092702297        0.1745745571
S             0.3211604451        0.6685087880        0.9098081298
S             0.6788395549        0.3314912120        0.0901918702
S             0.3492308016        0.6398305251        0.4832329319
S             0.6507691984        0.3601694749        0.5167670681
S             0.3751892176        0.9066579964        0.7773779080
S             0.6248107824        0.0933420036        0.2226220920
S             0.5082751051        0.6542722442        0.9543704919
S             0.4917248949        0.3457277558        0.0456295081
S             0.5333839006        0.6212750210        0.5285206624
S             0.4666160994        0.3787249790        0.4714793376
S             0.1922922706        0.9003116758        0.7945252671
S             0.8077077294        0.0996883242        0.2054747329
C             0.2275161491        0.6464372919        0.7828997281
C             0.7724838509        0.3535627081        0.2171002719
C             0.4666982945        0.6419003316        0.7287131307
C             0.5333017055        0.3580996684        0.2712868693
C             0.3886401972        0.6484948276        0.7098367106
C             0.6113598028        0.3515051724        0.2901632894
C             0.0442608388        0.5970588174        0.7603274379
C             0.9557391612        0.4029411826        0.2396725621
C             0.6091334386        0.6120675605        0.6692011342
C             0.3908665614        0.3879324395        0.3307988658
C             0.5963894494        0.6258613878        0.8667093075
C             0.4036105506        0.3741386122        0.1332906925
C             0.2409689697        0.6331690437        0.5854002412
C             0.7590310303        0.3668309563        0.4145997588
C             0.7115601417        0.5589469559        0.9173928334
C             0.2884398583        0.4410530441        0.0826071666
C             0.7647866318        0.5945385102        0.7126902730
C             0.2352133682        0.4054614898        0.2873097270
C             0.0782740134        0.6363408181        0.5520540193
C             0.9217259866        0.3636591819        0.4479459807
C             0.8427586958        0.8726861135        0.5669525789
C             0.1572413042        0.1273138865        0.4330474211
C             0.1592553987        0.9103838815        0.4065235135
C             0.8407446013        0.0896161185        0.5934764865
C             0.7969242254        0.8382069219        0.7763244615
C             0.2030757746        0.1617930781        0.2236755385
C             0.1125997672        0.8827502338        0.6184038546
C             0.8874002328        0.1172497662        0.3815961454
C             0.6711401170        0.8623900549        0.5347411426
C             0.3288598830        0.1376099451        0.4652588574
C             0.5187049657        0.8767321689        0.6001446077
C             0.4812950343        0.1232678311        0.3998553923
C             0.4398200538        0.8818641603        0.5803336049
C             0.5601799462        0.1181358397        0.4196663951
C             0.6593641386        0.8782809787        0.7313723013
C             0.3406358614        0.1217190213        0.2686276987
C             0.2922123807        0.8670658962        0.4565348542
C             0.7077876193        0.1329341038        0.5434651458
C             0.2821689744        0.8867584236        0.6511269319
C             0.7178310256        0.1132415764        0.3488730681
H             0.0213577066        0.5281267444        0.7603927657
H             0.9786422934        0.4718732556        0.2396072343
H             0.9857251568        0.6070272085        0.8333519339
H             0.0142748432        0.3929727915        0.1666480661
H             0.1072227368        0.7060866916        0.5506999665
H             0.8927772632        0.2939133084        0.4493000335
H             1.0209822207        0.6101047818        0.4637013335
H            -0.0209822207        0.3898952182        0.5362986665
H             0.7591591063        0.5604506462        0.0153827302
H             0.2408408937        0.4395493538        0.9846172698
H             0.6562377952        0.4928632580        0.9124267190
H             0.3437622048        0.5071367420        0.0875732810
H             0.7991396210        0.5570489533        0.6470279734
H             0.2008603790        0.4429510467        0.3529720266
H             0.8189070038        0.6610666885        0.7170529754
H             0.1810929962        0.3389333115        0.2829470246
H             0.0588645134        0.8155194164        0.6306705388
H             0.9411354866        0.1844805836        0.3693294612
H             0.0788776495        0.9214635228        0.6784311533
H             0.9211223505        0.0785364772        0.3215688467
H             0.2122015485        0.9776798402        0.3946860334
H             0.7877984515        0.0223201598        0.6053139666
H             0.1074657683        0.9011614805        0.3116434651
H             0.8925342317        0.0988385195        0.6883565349
H             0.8506376277        0.8514401444        0.8694711511
H             0.1493623723        0.1485598556        0.1305288489
H             0.8899815133        0.9417007639        0.5633907552
H             0.1100184867        0.0582992361        0.4366092448
H             0.8836021583        0.8408607999        0.5013089611
H             0.1163978417        0.1591392001        0.4986910389
H             0.7501825413        0.7692533363        0.7801584498
H             0.2498174587        0.2307466637        0.2198415502
K_POINTS {automatic}
3 3 5 0 0 0
