#************************************************************************************
#*                   Generated by cif2cell 2.1.0 2025-08-01 17:54                   *
#*  T. Bjorkman, Comp. Phys. Commun. 182, 1183-1186 (2011). Please cite generously. *
#*                                                                                  *
#*                              Data obtained from COD                              *
#*                              None   ((BETS)2AuCl2)                               *
#*             Failed to get author information, No journal information             *
#************************************************************************************

&CONTROL
  calculation='nscf'
  restart_mode='from_scratch'
  tstress=.true.
  tprnfor=.true.
  wf_collect=.true.
  prefix='aucl2'
  pseudo_dir='/home/k0713/k071300/data/sg15_oncv_upf_2020-02-06'
/ 
&SYSTEM
  ibrav = 0
  A =    9.09530
  nat = 110
  ntyp = 6
  nbnd=500
  ecutwfc=80.0
  ecutrho=320.0
  occupations='smearing'
  smearing='gaussian'
  degauss=0.02
  noncolin = .true.
  lspinorb = .true.
/ 
&electrons
  conv_thr=1.0d-8
  mixing_beta=0.3
/
CELL_PARAMETERS {alat}
  1.000000000000000   0.000000000000000   0.000000000000000 
 -0.015865635189416   1.185110344771242   0.000000000000000 
 -0.223358932297015  -0.451039788933948   1.833038350717504 
ATOMIC_SPECIES
   S   32.06750   S_ONCV_PBE_FR-1.1.upf
  Au  196.96600  Au_ONCV_PBE_FR-1.0.upf
   C   12.01060   C_ONCV_PBE_FR-1.0.upf
  Se   78.96000  Se_ONCV_PBE_FR-1.1.upf
  Cl   35.45150  Cl_ONCV_PBE_FR-1.1.upf
   H    1.00750   H_ONCV_PBE_FR-1.0.upf
ATOMIC_POSITIONS {crystal}
Au 0.6071800000 0.2497400000 0.0005000000
Au 0.3928200000 0.7502600000 0.9995000000
Se 0.8424400000 0.3831900000 0.5748100000
Se 0.1575600000 0.6168100000 0.4251900000
Se 0.6660900000 0.6369400000 0.6243500000
Se 0.3339100000 0.3630600000 0.3756500000
Se 0.8042400000 0.4052400000 0.3832000000
Se 0.1957600000 0.5947600000 0.6168000000
Se 0.6230200000 0.6572600000 0.4288300000
Se 0.3769800000 0.3427400000 0.5711700000
Se 0.9381500000 0.8552600000 0.5726900000
Se 0.0618500000 0.1447400000 0.4273100000
Se 0.1120000000 0.1256300000 0.6214600000
Se 0.8880000000 0.8743700000 0.3785400000
Se 0.4032600000 0.8707400000 0.5739300000
Se 0.5967400000 0.1292600000 0.4260700000
Se 0.6410100000 0.1047900000 0.6191800000
Se 0.3589900000 0.8952100000 0.3808200000
Cl 0.3582300000 0.2374300000 0.9992000000
Cl 0.6417700000 0.7625700000 0.0008000000
Cl 0.8564900000 0.2590600000 0.0006600000
Cl 0.1435100000 0.7409400000 0.9993400000
S 0.8791900000 0.3403500000 0.7420800000
S 0.1208100000 0.6596500000 0.2579200000
S 0.6956900000 0.6239600000 0.8011200000
S 0.3043100000 0.3760400000 0.1988800000
S 0.7656800000 0.4042800000 0.2044600000
S 0.2343200000 0.5957200000 0.7955400000
S 0.5697100000 0.6829700000 0.2573800000
S 0.4302900000 0.3170300000 0.7426200000
S 0.9811900000 0.8193100000 0.7420000000
S 0.0188100000 0.1806900000 0.2580000000
S 0.1711600000 0.1185400000 0.7982900000
S 0.8288400000 0.8814600000 0.2017100000
S 0.4307100000 0.8355700000 0.7436600000
S 0.5692900000 0.1644300000 0.2563400000
S 0.6789500000 0.1017700000 0.7973600000
S 0.3210500000 0.8982300000 0.2026400000
C 0.7383000000 0.5160000000 0.5418000000
C 0.2617000000 0.4840000000 0.4582000000
C 0.7222000000 0.5238000000 0.4640000000
C 0.2778000000 0.4762000000 0.5360000000
C 0.8052000000 0.4408000000 0.6833000000
C 0.1948000000 0.5592000000 0.3167000000
C 0.7321000000 0.5486000000 0.7044000000
C 0.2679000000 0.4514000000 0.2956000000
C 0.7251000000 0.4827000000 0.3002000000
C 0.2749000000 0.5173000000 0.6998000000
C 0.6480000000 0.5887000000 0.3199000000
C 0.3520000000 0.4113000000 0.6801000000
C 0.8347000000 0.4172000000 0.8411000000
C 0.1653000000 0.5828000000 0.1589000000
C 0.8428000000 0.5613000000 0.8582000000
C 0.1572000000 0.4387000000 0.1418000000
C 0.7483000000 0.5343000000 0.1546000000
C 0.2517000000 0.4657000000 0.8454000000
C 0.5967000000 0.5923000000 0.1583000000
C 0.4033000000 0.4077000000 0.8417000000
C 0.0110000000 0.9960000000 0.5385000000
C 0.9890000000 0.0040000000 0.4615000000
C 0.0174000000 0.9222000000 0.6817000000
C 0.9826000000 0.0778000000 0.3183000000
C 0.0903000000 0.0372000000 0.7024000000
C 0.9097000000 0.9628000000 0.2976000000
C 0.0812000000 0.8982000000 0.8390000000
C 0.9188000000 0.1018000000 0.1610000000
C 0.0710000000 0.0418000000 0.8601000000
C 0.9290000000 0.9582000000 0.1399000000
C 0.5085000000 0.9950000000 0.5384000000
C 0.4915000000 0.0050000000 0.4616000000
C 0.4914000000 0.9288000000 0.6822000000
C 0.5086000000 0.0712000000 0.3178000000
C 0.5895000000 0.0286000000 0.7022000000
C 0.4105000000 0.9714000000 0.2978000000
C 0.5054000000 0.9256000000 0.8429000000
C 0.4946000000 0.0744000000 0.1571000000
C 0.6630000000 0.9731000000 0.8478000000
C 0.3370000000 0.0269000000 0.1522000000
H 0.7259268783 0.3806524933 0.8487305077
H 0.2740731217 0.6193475067 0.1512694923
H 0.9169296982 0.3826162482 0.8819735592
H 0.0830703018 0.6173837518 0.1180264408
H 0.9500661862 0.5979191700 0.8481995607
H 0.0499338138 0.4020808300 0.1518004393
H 0.8254871091 0.6022229995 0.9206693565
H 0.1745128909 0.3977770005 0.0793306435
H 0.8380110919 0.6060415561 0.1806271932
H 0.1619889081 0.3939584439 0.8193728068
H 0.7628457743 0.4889862523 0.0923008676
H 0.2371542257 0.5110137477 0.9076991324
H 0.5083299002 0.5179474879 0.1365364288
H 0.4916700998 0.4820525121 0.8634635712
H 0.5849143564 0.6629820359 0.1216899427
H 0.4150856436 0.3370179641 0.8783100573
H 0.0298268496 0.8556911519 0.8816065084
H 0.9701731504 0.1443088481 0.1183934916
H 0.1963132132 0.8700525594 0.8407446419
H 0.8036867868 0.1299474406 0.1592553581
H 0.1270449137 0.0821205678 0.9208068253
H 0.8729550863 0.9178794322 0.0791931747
H 0.9566070545 0.0719292479 0.8569852899
H 0.0433929455 0.9280707521 0.1430147101
H 0.4332616776 1.0042683829 0.8631694738
H 0.5667383224 -0.004268382 0.1368305262
H 0.4987636656 0.8563764832 0.8801143012
H 0.5012363344 0.1436235168 0.1198856988
H 0.7343026901 0.8962014348 0.8232917263
H 0.2656973099 0.1037985652 0.1767082737
H 0.7066646626 0.0174521069 0.9103213749
H 0.2933353374 0.9825478931 0.0896786251
K_POINTS crystal
75
  0.00000000  0.00000000  0.00000000  1.333333e-02
  0.00000000  0.00000000  0.33333333  1.333333e-02
  0.00000000  0.00000000  0.66666667  1.333333e-02
  0.00000000  0.20000000  0.00000000  1.333333e-02
  0.00000000  0.20000000  0.33333333  1.333333e-02
  0.00000000  0.20000000  0.66666667  1.333333e-02
  0.00000000  0.40000000  0.00000000  1.333333e-02
  0.00000000  0.40000000  0.33333333  1.333333e-02
  0.00000000  0.40000000  0.66666667  1.333333e-02
  0.00000000  0.60000000  0.00000000  1.333333e-02
  0.00000000  0.60000000  0.33333333  1.333333e-02
  0.00000000  0.60000000  0.66666667  1.333333e-02
  0.00000000  0.80000000  0.00000000  1.333333e-02
  0.00000000  0.80000000  0.33333333  1.333333e-02
  0.00000000  0.80000000  0.66666667  1.333333e-02
  0.20000000  0.00000000  0.00000000  1.333333e-02
  0.20000000  0.00000000  0.33333333  1.333333e-02
  0.20000000  0.00000000  0.66666667  1.333333e-02
  0.20000000  0.20000000  0.00000000  1.333333e-02
  0.20000000  0.20000000  0.33333333  1.333333e-02
  0.20000000  0.20000000  0.66666667  1.333333e-02
  0.20000000  0.40000000  0.00000000  1.333333e-02
  0.20000000  0.40000000  0.33333333  1.333333e-02
  0.20000000  0.40000000  0.66666667  1.333333e-02
  0.20000000  0.60000000  0.00000000  1.333333e-02
  0.20000000  0.60000000  0.33333333  1.333333e-02
  0.20000000  0.60000000  0.66666667  1.333333e-02
  0.20000000  0.80000000  0.00000000  1.333333e-02
  0.20000000  0.80000000  0.33333333  1.333333e-02
  0.20000000  0.80000000  0.66666667  1.333333e-02
  0.40000000  0.00000000  0.00000000  1.333333e-02
  0.40000000  0.00000000  0.33333333  1.333333e-02
  0.40000000  0.00000000  0.66666667  1.333333e-02
  0.40000000  0.20000000  0.00000000  1.333333e-02
  0.40000000  0.20000000  0.33333333  1.333333e-02
  0.40000000  0.20000000  0.66666667  1.333333e-02
  0.40000000  0.40000000  0.00000000  1.333333e-02
  0.40000000  0.40000000  0.33333333  1.333333e-02
  0.40000000  0.40000000  0.66666667  1.333333e-02
  0.40000000  0.60000000  0.00000000  1.333333e-02
  0.40000000  0.60000000  0.33333333  1.333333e-02
  0.40000000  0.60000000  0.66666667  1.333333e-02
  0.40000000  0.80000000  0.00000000  1.333333e-02
  0.40000000  0.80000000  0.33333333  1.333333e-02
  0.40000000  0.80000000  0.66666667  1.333333e-02
  0.60000000  0.00000000  0.00000000  1.333333e-02
  0.60000000  0.00000000  0.33333333  1.333333e-02
  0.60000000  0.00000000  0.66666667  1.333333e-02
  0.60000000  0.20000000  0.00000000  1.333333e-02
  0.60000000  0.20000000  0.33333333  1.333333e-02
  0.60000000  0.20000000  0.66666667  1.333333e-02
  0.60000000  0.40000000  0.00000000  1.333333e-02
  0.60000000  0.40000000  0.33333333  1.333333e-02
  0.60000000  0.40000000  0.66666667  1.333333e-02
  0.60000000  0.60000000  0.00000000  1.333333e-02
  0.60000000  0.60000000  0.33333333  1.333333e-02
  0.60000000  0.60000000  0.66666667  1.333333e-02
  0.60000000  0.80000000  0.00000000  1.333333e-02
  0.60000000  0.80000000  0.33333333  1.333333e-02
  0.60000000  0.80000000  0.66666667  1.333333e-02
  0.80000000  0.00000000  0.00000000  1.333333e-02
  0.80000000  0.00000000  0.33333333  1.333333e-02
  0.80000000  0.00000000  0.66666667  1.333333e-02
  0.80000000  0.20000000  0.00000000  1.333333e-02
  0.80000000  0.20000000  0.33333333  1.333333e-02
  0.80000000  0.20000000  0.66666667  1.333333e-02
  0.80000000  0.40000000  0.00000000  1.333333e-02
  0.80000000  0.40000000  0.33333333  1.333333e-02
  0.80000000  0.40000000  0.66666667  1.333333e-02
  0.80000000  0.60000000  0.00000000  1.333333e-02
  0.80000000  0.60000000  0.33333333  1.333333e-02
  0.80000000  0.60000000  0.66666667  1.333333e-02
  0.80000000  0.80000000  0.00000000  1.333333e-02
  0.80000000  0.80000000  0.33333333  1.333333e-02
  0.80000000  0.80000000  0.66666667  1.333333e-02
